# general
SYSTEM = system
PREC = ACC
ISTART = 0
ICHARG = 2
ENCUT = 520 eV

# electronic
LREAL = False
ISPIN = 0
ALGO = Fast
ISMEAR = 0
SIGMA = 0.2
EDIFF = 1E-6
NELMIN = 5
NELM = 60

# ionic
NSW = 60
IBRION = 2
ISIF = 3
EDIFFG = -1E-2

# output
LWAVE = .TRUE.
LCHARG = .TRUE.

# parallelization
LPLANE = .TRUE.
NPAR = 24
KPAR = 12
